archive/demo_outputs/rsa_demo_output_64/certs/0013.assert.smt2
; benchmark generated from python API
(set-info :status unknown)
(declare-fun p () Int)
(declare-fun q () Int)
(declare-fun n () Int)
(assert
 (= p 2428181603))
(assert
 (= q 3614508253))
(assert
 (= n 8776682443826269559))
(assert
 (let ((?x31 (* p q)))
 (= ?x31 n)))
(assert
 (> p 1))
(assert
 (> q 1))
(check-sat)
